POSCAR file written by OVITO Basic 3.7.8
1.0000000000000000
17.6649608600000008    0.0000000000000000    0.0000000000000000
8.8319152200000008   15.2858494900000004    0.0000000000000000
0.0000000000000000    0.0000000000000000   70.0000000000000000
Au
286
Selective dynamics
Cartesian
+0.0000000000 +0.0000000000 +0.0000000000 F F F
+2.9441600000 +0.0000000000 +0.0000000000 F F F
+5.8883200000 +0.0000000000 +0.0000000000 F F F
+8.8324900000 +0.0000000000 +0.0000000000 F F F
+11.7766500000 +0.0000000000 +0.0000000000 F F F
+14.7208100000 +0.0000000000 +0.0000000000 F F F
+1.4719900000 +2.5476400000 +0.0000000000 F F F
+4.4161500000 +2.5476400000 +0.0000000000 F F F
+7.3603100000 +2.5476400000 +0.0000000000 F F F
+10.3044700000 +2.5476400000 +0.0000000000 F F F
+13.2486300000 +2.5476400000 +0.0000000000 F F F
+16.1927900000 +2.5476400000 +0.0000000000 F F F
+2.9439700000 +5.0952800000 +0.0000000000 F F F
+5.8881300000 +5.0952800000 +0.0000000000 F F F
+8.8323000000 +5.0952800000 +0.0000000000 F F F
+11.7764600000 +5.0952800000 +0.0000000000 F F F
+14.7206200000 +5.0952800000 +0.0000000000 F F F
+17.6647800000 +5.0952800000 +0.0000000000 F F F
+4.4159600000 +7.6429200000 +0.0000000000 F F F
+7.3601200000 +7.6429200000 +0.0000000000 F F F
+10.3042800000 +7.6429200000 +0.0000000000 F F F
+13.2484400000 +7.6429200000 +0.0000000000 F F F
+16.1926100000 +7.6429200000 +0.0000000000 F F F
+19.1367700000 +7.6429200000 +0.0000000000 F F F
+8.8321100000 +10.1905700000 +0.0000000000 F F F
+11.7762700000 +10.1905700000 +0.0000000000 F F F
+14.7204300000 +10.1905700000 +0.0000000000 F F F
+17.6645900000 +10.1905700000 +0.0000000000 F F F
+20.6087500000 +10.1905700000 +0.0000000000 F F F
+23.5529000000 +10.1905700000 +0.0000000000 F F F
+25.0248908600 +12.7382100000 +0.0000000000 F F F
+10.3040900000 +12.7382100000 +0.0000000000 F F F
+13.2482500000 +12.7382100000 +0.0000000000 F F F
+16.1924100000 +12.7382100000 +0.0000000000 F F F
+19.1365800000 +12.7382100000 +0.0000000000 F F F
+22.0807400000 +12.7382100000 +0.0000000000 F F F
+1.4720500000 +0.8491600000 +2.3913300000 F F F
+4.4162100000 +0.8491600000 +2.3913300000 F F F
+7.3603800000 +0.8491600000 +2.3913300000 F F F
+10.3045400000 +0.8491600000 +2.3913300000 F F F
+13.2487000000 +0.8491600000 +2.3913300000 F F F
+16.1928600000 +0.8491600000 +2.3913300000 F F F
+2.9440400000 +3.3968000000 +2.3913300000 F F F
+5.8882000000 +3.3968000000 +2.3913300000 F F F
+8.8323600000 +3.3968000000 +2.3913300000 F F F
+11.7765200000 +3.3968000000 +2.3913300000 F F F
+14.7206900000 +3.3968000000 +2.3913300000 F F F
+17.6648500000 +3.3968000000 +2.3913300000 F F F
+4.4160200000 +5.9444500000 +2.3913300000 F F F
+7.3601900000 +5.9444500000 +2.3913300000 F F F
+10.3043500000 +5.9444500000 +2.3913300000 F F F
+13.2485100000 +5.9444500000 +2.3913300000 F F F
+16.1926700000 +5.9444500000 +2.3913300000 F F F
+19.1368300000 +5.9444500000 +2.3913300000 F F F
+5.8880100000 +8.4920900000 +2.3913300000 F F F
+8.8321700000 +8.4920900000 +2.3913300000 F F F
+11.7763300000 +8.4920900000 +2.3913300000 F F F
+14.7205000000 +8.4920900000 +2.3913300000 F F F
+17.6646600000 +8.4920900000 +2.3913300000 F F F
+20.6088200000 +8.4920900000 +2.3913300000 F F F
+7.3600000000 +11.0397300000 +2.3913300000 F F F
+10.3041600000 +11.0397300000 +2.3913300000 F F F
+13.2483200000 +11.0397300000 +2.3913300000 F F F
+16.1924800000 +11.0397300000 +2.3913300000 F F F
+19.1366400000 +11.0397300000 +2.3913300000 F F F
+22.0808100000 +11.0397300000 +2.3913300000 F F F
+8.8319800000 +13.5873700000 +2.3913300000 F F F
+11.7761400000 +13.5873700000 +2.3913300000 F F F
+14.7203100000 +13.5873700000 +2.3913300000 F F F
+17.6644700000 +13.5873700000 +2.3913300000 F F F
+20.6086300000 +13.5873700000 +2.3913300000 F F F
+23.5527900000 +13.5873700000 +2.3913300000 F F F
+13.2588233420 +4.0793355868 +4.7048366998 T T T
+10.1681244453 +9.4316301116 +4.6967697405 T T T
+16.1900557538 +4.0793788363 +4.7012064796 T T T
+11.6388556295 +11.9736276158 +4.6939132391 T T T
+17.8167359239 +11.9681227195 +4.6959998801 T T T
+19.2888530746 +9.4302605558 +4.6970827362 T T T
+14.7140320531 +11.9184928788 +4.6393412332 T T T
+17.6936982143 +6.7755386472 +4.6390340252 T T T
+10.3128961167 +4.1216808085 +4.7002580760 T T T
+11.7485911294 +6.7652828272 +4.6487929571 T T T
+8.7272385721 +6.8641296355 +4.7037378888 T T T
+13.1430534384 +14.5079127994 +4.6963304524 T T T
+19.1342723569 +4.1169731468 +4.6974968609 T T T
+16.3082580558 +14.5007656399 +4.6977507759 T T T
+16.2256588255 +9.3697952584 +4.6440317493 T T T
+20.7246584156 +6.8569707678 +4.6952449788 T T T
+13.2065948277 +9.3247503167 +4.6698417699 T T T
+14.7175058732 +6.7544640799 +4.6488227172 T T T
+22.1005752839 +14.4292355355 +4.7539879390 T T T
+23.5573826679 +11.9117870867 +4.7508642101 T T T
+25.0093968681 +14.4275472067 +4.7529825954 T T T
+2.9372663389 +1.6962574679 +4.7313767538 T T T
+8.8450808602 +1.6970868791 +4.7319040821 T T T
+5.8937653922 +6.8038141902 +4.7321093824 T T T
+14.7226624430 +1.5948973129 +4.7670339133 T T T
+8.7480646347 +11.9438200262 +4.7626451120 T T T
+20.7043572604 +11.9442412104 +4.7633744197 T T T
+7.3474801571 +4.2392735378 +4.8232136651 T T T
+5.8952947342 +1.7303297466 +4.8155721015 T T T
+11.7883961147 +1.6219693581 +4.7688036239 T T T
+7.3024864417 +9.3898579064 +4.7647394824 T T T
+22.1491696310 +9.3888203023 +4.7660249744 T T T
+17.6560391587 +1.6213889583 +4.7680872348 T T T
+19.2099279975 +14.4697300074 +4.7676540746 T T T
+10.2360157332 +14.4697015824 +4.7653512288 T T T
+4.4481091795 +4.2315903497 +4.8139850960 T T T
+9.0151508650 +5.1964764951 +6.9131868028 T T T
+11.8685040961 +4.9381829851 +6.9155190511 T T T
+10.2470235454 +7.7970720766 +6.8950060270 T T T
+13.0986415837 +12.7468782609 +6.8906624548 T T T
+16.3564134130 +12.7285574947 +6.8881314983 T T T
+14.7323326371 +15.1087822404 +6.9051837031 T T T
+17.5880020760 +4.9573495635 +6.8996350207 T T T
+19.2174236461 +7.7736767443 +6.8856518667 T T T
+20.4589029193 +5.1777049553 +6.8978673534 T T T
+11.6229058251 +10.3042827559 +6.8990337649 T T T
+14.7334969697 +4.9178650274 +6.9110173891 T T T
+17.8375279850 +10.2832662871 +6.8989599997 T T T
+14.7041829565 +10.1865531152 +6.8854271602 T T T
+13.2439319881 +7.5612373978 +6.9489427718 T T T
+16.1994052332 +7.6598300797 +6.8761157863 T T T
+10.4848983382 +6.0749562725 +9.0519335228 T T T
+14.7429822566 +13.4034191274 +9.0386456660 T T T
+19.0044285824 +6.0299265753 +9.0423406859 T T T
+13.3160770931 +5.6105161668 +9.1822854173 T T T
+11.6283646170 +8.6851177338 +9.1078569827 T T T
+13.0541749795 +11.1171262151 +9.1089693919 T T T
+16.1638529645 +5.7966519661 +9.0985313218 T T T
+16.4087218259 +11.0812457124 +9.0972829183 T T T
+17.8336944148 +8.6344974794 +9.0999988431 T T T
+14.7147814657 +8.5025817256 +9.1174147935 T T T
+11.8757184725 +6.9326880186 +11.2274608055 T T T
+17.6152095893 +6.8460738778 +11.2309485158 T T T
+14.7613599266 +11.7728773848 +11.2149953846 T T T
+13.0337953601 +9.5173588842 +11.3075802181 T T T
+14.7654816120 +6.6789261655 +11.2718591491 T T T
+16.4645500549 +9.4685949404 +11.2983321293 T T T
+13.3065223207 +7.6980755142 +13.3756560099 T T T
+16.2346608064 +7.6581197053 +13.3948493173 T T T
+14.7826664045 +10.1613568276 +13.3714089802 T T T
+14.7729478414 +8.4780401201 +15.5140823194 T T T
+14.6171765071 +8.5734532413 28.0821896208 T T T
+14.5843339523 +6.8691499707 30.198467707 T T T
+13.1916071525 +9.3902057995 30.2392805499 T T T
+16.0707332713 +9.4145516555 30.2070118934 T T T
+14.6594900875 +10.5137795998 32.3089816209 T T T
+12.9417124625 +7.5492169791 32.298699757 T T T
+16.1916507876 +7.6246684121 32.323477975 T T T
+14.5757250759 +5.2267061286 32.3513045573 T T T
+11.8223210610 +10.1742167405 32.406250958499996 T T T
+17.5085150898 +10.1632623497 32.358972896699996 T T T
+14.6516008600 +8.5139086028 34.4969250023 T T T
+13.2660684457 +11.2724935602 34.5130144226 T T T
+11.5842837055 +8.3688935592 34.505161850099995 T T T
+16.5059843776 +5.7922845984 34.372620036 T T T
+12.9959009664 +5.9159428224 34.4956476762 T T T
+16.1026698147 +11.2645389826 34.4960567898 T T T
+17.7024180519 +8.3759994990 34.4854449665 T T T
+14.6732583467 +3.6026316627 34.5336495448 T T T
+10.4247983684 +10.9772890598 34.5836812783 T T T
+18.9397066866 +10.9469772035 34.5400856726 T T T
+16.1598953080 +9.3573691038 36.72279846 T T T
+13.2177324058 +9.3388445084 36.7270942372 T T T
+14.7013008331 +12.0998873488 36.699627404 T T T
+14.7865950056 +6.7482797968 36.643934227900004 T T T
+17.8128753199 +6.6885872691 36.657317056 T T T
+11.5959526023 +6.7168466017 36.7035032301 T T T
+8.9558787867 +11.8246024682 36.7093414935 T T T
+11.8359243386 +12.0417114728 36.7219037291 T T T
+14.7161677702 +1.9008720223 36.680791156 T T T
+10.1975309619 +9.2172428501 36.717662604400005 T T T
+20.4248164936 +11.7782499476 36.6847424997 T T T
+16.3609107311 +4.2395493675 36.667227613099996 T T T
+13.0846731021 +4.2715793117 36.7028359672 T T T
+17.5653967107 +12.0226812052 36.7029437205 T T T
+19.1785346693 +9.1876671315 36.6797667476 T T T
+24.9784363513 +12.7630680529 38.7909082292 T T T
+1.5397752141 +2.5190635155 38.8282899491 T T T
+10.2314453470 +2.5201869206 38.8297065845 T T T
+4.4710837876 +7.5943526304 38.8280429272 T T T
+7.2914530596 +7.5981432982 38.8282066439 T T T
+23.5421677620 +15.2691520610 38.7738619476 T T T
+2.9474313105 +0.0819820222 38.8261450236 T T T
+8.8222354491 +0.0809756708 38.8285101873 T T T
+22.0870621778 +12.7481634602 38.773209917900004 T T T
+8.7403359518 +5.0480480450 38.8306493166 T T T
+3.0304374511 +5.0442343611 38.8312988318 T T T
+5.8854291803 +0.1101626663 38.8316387574 T T T
+23.5374071481 +10.1813040202 38.8633266722 T T T
+11.7657625942 +0.0059413566 38.8627170616 T T T
+17.6647142182 +0.0127559055 38.862073551 T T T
+5.8860663205 +5.0764697293 38.8421951907 T T T
+7.3415136120 +2.5617097530 38.8437717737 T T T
+4.4306875788 +2.5604660004 38.8427354137 T T T
+14.7084247335 +10.2379051093 38.9540176041 T T T
+16.2297352172 +7.6166167187 38.9419030497 T T T
+8.7028942634 +10.1337314766 38.9045940628 T T T
+13.2444292937 +7.5982966290 38.9277816397 T T T
+13.1320025456 +2.4893653996 38.8919266681 T T T
+20.7043776172 +10.1117570841 38.8886701187 T T T
+16.2985061007 +2.4929694430 38.893117918499996 T T T
+10.2927849900 +12.8751894682 38.906023594000004 T T T
+19.1295655635 +12.8662090747 38.8947832247 T T T
+17.6912748814 +10.2054079184 38.9544022934 T T T
+11.7363522682 +10.2012331709 38.9614710811 T T T
+14.7317804775 +5.0560255184 38.9450445368 T T T
+10.1578145356 +7.5632925088 38.905288753 T T T
+11.6288846253 +5.0205796385 38.9007933345 T T T
+19.2667888417 +7.5483198500 38.883546013200004 T T T
+17.8067104327 +5.0161760106 38.8844464433 T T T
+13.2456569404 +12.9126376977 38.904782429899996 T T T
+16.1838812491 +12.9124205658 38.8984855385 T T T
+1.4721000000 +0.8484100000 41.203289999999996 F F F
+4.4162600000 +0.8484100000 41.203289999999996 F F F
+7.3604100000 +0.8484100000 41.203289999999996 F F F
+10.3045700000 +0.8484100000 41.203289999999996 F F F
+13.2487300000 +0.8484100000 41.203289999999996 F F F
+16.1929000000 +0.8484100000 41.203289999999996 F F F
+2.9440800000 +3.3960500000 41.203289999999996 F F F
+5.8882400000 +3.3960500000 41.203289999999996 F F F
+8.8324000000 +3.3960500000 41.203289999999996 F F F
+11.7765600000 +3.3960500000 41.203289999999996 F F F
+14.7207200000 +3.3960500000 41.203289999999996 F F F
+17.6648800000 +3.3960500000 41.203289999999996 F F F
+4.4160700000 +5.9436900000 41.203289999999996 F F F
+7.3602300000 +5.9436900000 41.203289999999996 F F F
+10.3043900000 +5.9436900000 41.203289999999996 F F F
+13.2485500000 +5.9436900000 41.203289999999996 F F F
+16.1927100000 +5.9436900000 41.203289999999996 F F F
+19.1368700000 +5.9436900000 41.203289999999996 F F F
+5.8880500000 +8.4913400000 41.203289999999996 F F F
+8.8322100000 +8.4913400000 41.203289999999996 F F F
+11.7763700000 +8.4913400000 41.203289999999996 F F F
+14.7205300000 +8.4913400000 41.203289999999996 F F F
+17.6646900000 +8.4913400000 41.203289999999996 F F F
+20.6088500000 +8.4913400000 41.203289999999996 F F F
+7.3600400000 +11.0389800000 41.203289999999996 F F F
+10.3042000000 +11.0389800000 41.203289999999996 F F F
+13.2483600000 +11.0389800000 41.203289999999996 F F F
+16.1925200000 +11.0389800000 41.203289999999996 F F F
+19.1366800000 +11.0389800000 41.203289999999996 F F F
+22.0808400000 +11.0389800000 41.203289999999996 F F F
+8.8320200000 +13.5866200000 41.203289999999996 F F F
+11.7761800000 +13.5866200000 41.203289999999996 F F F
+14.7203400000 +13.5866200000 41.203289999999996 F F F
+17.6645000000 +13.5866200000 41.203289999999996 F F F
+20.6086600000 +13.5866200000 41.203289999999996 F F F
+23.5528200000 +13.5866200000 41.203289999999996 F F F
+2.9441500000 +1.6975700000 43.59462 F F F
+5.8883100000 +1.6975700000 43.59462 F F F
+8.8324700000 +1.6975700000 43.59462 F F F
+11.7766300000 +1.6975700000 43.59462 F F F
+14.7207900000 +1.6975700000 43.59462 F F F
+17.6649500000 +1.6975700000 43.59462 F F F
+4.4161300000 +4.2452200000 43.59462 F F F
+7.3602900000 +4.2452200000 43.59462 F F F
+10.3044500000 +4.2452200000 43.59462 F F F
+13.2486100000 +4.2452200000 43.59462 F F F
+16.1927700000 +4.2452200000 43.59462 F F F
+19.1369300000 +4.2452200000 43.59462 F F F
+5.8881200000 +6.7928600000 43.59462 F F F
+8.8322800000 +6.7928600000 43.59462 F F F
+11.7764400000 +6.7928600000 43.59462 F F F
+14.7206000000 +6.7928600000 43.59462 F F F
+17.6647600000 +6.7928600000 43.59462 F F F
+20.6089200000 +6.7928600000 43.59462 F F F
+7.3601000000 +9.3405000000 43.59462 F F F
+10.3042600000 +9.3405000000 43.59462 F F F
+13.2484200000 +9.3405000000 43.59462 F F F
+16.1925800000 +9.3405000000 43.59462 F F F
+19.1367400000 +9.3405000000 43.59462 F F F
+22.0809000000 +9.3405000000 43.59462 F F F
+8.8320900000 +11.8881400000 43.59462 F F F
+11.7762500000 +11.8881400000 43.59462 F F F
+14.7204100000 +11.8881400000 43.59462 F F F
+17.6645700000 +11.8881400000 43.59462 F F F
+20.6087300000 +11.8881400000 43.59462 F F F
+23.5528900000 +11.8881400000 43.59462 F F F
+10.3040700000 +14.4357800000 43.59462 F F F
+13.2482400000 +14.4357800000 43.59462 F F F
+16.1924000000 +14.4357800000 43.59462 F F F
+19.1365500000 +14.4357800000 43.59462 F F F
+22.0807100000 +14.4357800000 43.59462 F F F
+25.0248800000 +14.4357800000 43.59462 F F F

