POSCAR file written by OVITO Basic 3.7.8
1      
17.6649608600 0.0000000000 0.0000000000    
8.8319152200 15.2858494900 0.0000000000    
0.0000000000 0.0000000000 70.0000000000    
Au C H S   
286 16 16 2   
Selective dynamics     
Cartesian      
0.000000000 0.000000000 0.000000000 F F F 
2.944160000 0.000000000 0.000000000 F F F 
5.888320000 0.000000000 0.000000000 F F F 
8.832490000 0.000000000 0.000000000 F F F 
11.776650000 0.000000000 0.000000000 F F F 
14.720810000 0.000000000 0.000000000 F F F 
1.471990000 2.547640000 0.000000000 F F F 
4.416150000 2.547640000 0.000000000 F F F 
7.360310000 2.547640000 0.000000000 F F F 
10.304470000 2.547640000 0.000000000 F F F 
13.248630000 2.547640000 0.000000000 F F F 
16.192790000 2.547640000 0.000000000 F F F 
2.943970000 5.095280000 0.000000000 F F F 
5.888130000 5.095280000 0.000000000 F F F 
8.832300000 5.095280000 0.000000000 F F F 
11.776460000 5.095280000 0.000000000 F F F 
14.720620000 5.095280000 0.000000000 F F F 
17.664780000 5.095280000 0.000000000 F F F 
4.415960000 7.642920000 0.000000000 F F F 
7.360120000 7.642920000 0.000000000 F F F 
10.304280000 7.642920000 0.000000000 F F F 
13.248440000 7.642920000 0.000000000 F F F 
16.192610000 7.642920000 0.000000000 F F F 
19.136770000 7.642920000 0.000000000 F F F 
8.832110000 10.190570000 0.000000000 F F F 
11.776270000 10.190570000 0.000000000 F F F 
14.720430000 10.190570000 0.000000000 F F F 
17.664590000 10.190570000 0.000000000 F F F 
20.608750000 10.190570000 0.000000000 F F F 
23.552900000 10.190570000 0.000000000 F F F 
25.024890860 12.738210000 0.000000000 F F F 
10.304090000 12.738210000 0.000000000 F F F 
13.248250000 12.738210000 0.000000000 F F F 
16.192410000 12.738210000 0.000000000 F F F 
19.136580000 12.738210000 0.000000000 F F F 
22.080740000 12.738210000 0.000000000 F F F 
1.472050000 0.849160000 2.391330000 F F F 
4.416210000 0.849160000 2.391330000 F F F 
7.360380000 0.849160000 2.391330000 F F F 
10.304540000 0.849160000 2.391330000 F F F 
13.248700000 0.849160000 2.391330000 F F F 
16.192860000 0.849160000 2.391330000 F F F 
2.944040000 3.396800000 2.391330000 F F F 
5.888200000 3.396800000 2.391330000 F F F 
8.832360000 3.396800000 2.391330000 F F F 
11.776520000 3.396800000 2.391330000 F F F 
14.720690000 3.396800000 2.391330000 F F F 
17.664850000 3.396800000 2.391330000 F F F 
4.416020000 5.944450000 2.391330000 F F F 
7.360190000 5.944450000 2.391330000 F F F 
10.304350000 5.944450000 2.391330000 F F F 
13.248510000 5.944450000 2.391330000 F F F 
16.192670000 5.944450000 2.391330000 F F F 
19.136830000 5.944450000 2.391330000 F F F 
5.888010000 8.492090000 2.391330000 F F F 
8.832170000 8.492090000 2.391330000 F F F 
11.776330000 8.492090000 2.391330000 F F F 
14.720500000 8.492090000 2.391330000 F F F 
17.664660000 8.492090000 2.391330000 F F F 
20.608820000 8.492090000 2.391330000 F F F 
7.360000000 11.039730000 2.391330000 F F F 
10.304160000 11.039730000 2.391330000 F F F 
13.248320000 11.039730000 2.391330000 F F F 
16.192480000 11.039730000 2.391330000 F F F 
19.136640000 11.039730000 2.391330000 F F F 
22.080810000 11.039730000 2.391330000 F F F 
8.831980000 13.587370000 2.391330000 F F F 
11.776140000 13.587370000 2.391330000 F F F 
14.720310000 13.587370000 2.391330000 F F F 
17.664470000 13.587370000 2.391330000 F F F 
20.608630000 13.587370000 2.391330000 F F F 
23.552790000 13.587370000 2.391330000 F F F 
13.258823342 4.079335587 4.704836700 T T T 
10.168124445 9.431630112 4.696769741 T T T 
16.190055754 4.079378836 4.701206480 T T T 
11.638855630 11.973627616 4.693913239 T T T 
17.816735924 11.968122720 4.695999880 T T T 
19.288853075 9.430260556 4.697082736 T T T 
14.714032053 11.918492879 4.639341233 T T T 
17.693698214 6.775538647 4.639034025 T T T 
10.312896117 4.121680809 4.700258076 T T T 
11.748591129 6.765282827 4.648792957 T T T 
8.727238572 6.864129636 4.703737889 T T T 
13.143053438 14.507912799 4.696330452 T T T 
19.134272357 4.116973147 4.697496861 T T T 
16.308258056 14.500765640 4.697750776 T T T 
16.225658826 9.369795258 4.644031749 T T T 
20.724658416 6.856970768 4.695244979 T T T 
13.206594828 9.324750317 4.669841770 T T T 
14.717505873 6.754464080 4.648822717 T T T 
22.100575284 14.429235536 4.753987939 T T T 
23.557382668 11.911787087 4.750864210 T T T 
25.009396868 14.427547207 4.752982595 T T T 
2.937266339 1.696257468 4.731376754 T T T 
8.845080860 1.697086879 4.731904082 T T T 
5.893765392 6.803814190 4.732109382 T T T 
14.722662443 1.594897313 4.767033913 T T T 
8.748064635 11.943820026 4.762645112 T T T 
20.704357260 11.944241210 4.763374420 T T T 
7.347480157 4.239273538 4.823213665 T T T 
5.895294734 1.730329747 4.815572102 T T T 
11.788396115 1.621969358 4.768803624 T T T 
7.302486442 9.389857906 4.764739482 T T T 
22.149169631 9.388820302 4.766024974 T T T 
17.656039159 1.621388958 4.768087235 T T T 
19.209927998 14.469730007 4.767654075 T T T 
10.236015733 14.469701582 4.765351229 T T T 
4.448109180 4.231590350 4.813985096 T T T 
9.015150865 5.196476495 6.913186803 T T T 
11.868504096 4.938182985 6.915519051 T T T 
10.247023545 7.797072077 6.895006027 T T T 
13.098641584 12.746878261 6.890662455 T T T 
16.356413413 12.728557495 6.888131498 T T T 
14.732332637 15.108782240 6.905183703 T T T 
17.588002076 4.957349564 6.899635021 T T T 
19.217423646 7.773676744 6.885651867 T T T 
20.458902919 5.177704955 6.897867353 T T T 
11.622905825 10.304282756 6.899033765 T T T 
14.733496970 4.917865027 6.911017389 T T T 
17.837527985 10.283266287 6.898960000 T T T 
14.704182957 10.186553115 6.885427160 T T T 
13.243931988 7.561237398 6.948942772 T T T 
16.199405233 7.659830080 6.876115786 T T T 
10.484898338 6.074956273 9.051933523 T T T 
14.742982257 13.403419127 9.038645666 T T T 
19.004428582 6.029926575 9.042340686 T T T 
13.316077093 5.610516167 9.182285417 T T T 
11.628364617 8.685117734 9.107856983 T T T 
13.054174980 11.117126215 9.108969392 T T T 
16.163852965 5.796651966 9.098531322 T T T 
16.408721826 11.081245712 9.097282918 T T T 
17.833694415 8.634497479 9.099998843 T T T 
14.714781466 8.502581726 9.117414794 T T T 
11.875718473 6.932688019 11.227460806 T T T 
17.615209589 6.846073878 11.230948516 T T T 
14.761359927 11.772877385 11.214995385 T T T 
13.033795360 9.517358884 11.307580218 T T T 
14.765481612 6.678926166 11.271859149 T T T 
16.464550055 9.468594940 11.298332129 T T T 
13.306522321 7.698075514 13.375656010 T T T 
16.234660806 7.658119705 13.394849317 T T T 
14.782666405 10.161356828 13.371408980 T T T 
14.772947841 8.478040120 15.514082319 T T T 
14.617176507 8.573453241 18.082189621 T T T 
14.584333952 6.869149971 20.198467707 T T T 
13.191607153 9.390205800 20.239280550 T T T 
16.070733271 9.414551656 20.207011893 T T T 
14.659490088 10.513779600 22.308981621 T T T 
12.941712463 7.549216979 22.298699757 T T T 
16.191650788 7.624668412 22.323477975 T T T 
14.575725076 5.226706129 22.351304557 T T T 
11.822321061 10.174216741 22.406250959 T T T 
17.508515090 10.163262350 22.358972897 T T T 
14.651600860 8.513908603 24.496925002 T T T 
13.266068446 11.272493560 24.513014423 T T T 
11.584283706 8.368893559 24.505161850 T T T 
16.505984378 5.792284598 24.372620036 T T T 
12.995900966 5.915942822 24.495647676 T T T 
16.102669815 11.264538983 24.496056790 T T T 
17.702418052 8.375999499 24.485444967 T T T 
14.673258347 3.602631663 24.533649545 T T T 
10.424798368 10.977289060 24.583681278 T T T 
18.939706687 10.946977204 24.540085673 T T T 
16.159895308 9.357369104 26.722798460 T T T 
13.217732406 9.338844508 26.727094237 T T T 
14.701300833 12.099887349 26.699627404 T T T 
14.786595006 6.748279797 26.643934228 T T T 
17.812875320 6.688587269 26.657317056 T T T 
11.595952602 6.716846602 26.703503230 T T T 
8.955878787 11.824602468 26.709341494 T T T 
11.835924339 12.041711473 26.721903729 T T T 
14.716167770 1.900872022 26.680791156 T T T 
10.197530962 9.217242850 26.717662604 T T T 
20.424816494 11.778249948 26.684742500 T T T 
16.360910731 4.239549368 26.667227613 T T T 
13.084673102 4.271579312 26.702835967 T T T 
17.565396711 12.022681205 26.702943721 T T T 
19.178534669 9.187667132 26.679766748 T T T 
24.978436351 12.763068053 28.790908229 T T T 
1.539775214 2.519063516 28.828289949 T T T 
10.231445347 2.520186921 28.829706585 T T T 
4.471083788 7.594352630 28.828042927 T T T 
7.291453060 7.598143298 28.828206644 T T T 
23.542167762 15.269152061 28.773861948 T T T 
2.947431311 0.081982022 28.826145024 T T T 
8.822235449 0.080975671 28.828510187 T T T 
22.087062178 12.748163460 28.773209918 T T T 
8.740335952 5.048048045 28.830649317 T T T 
3.030437451 5.044234361 28.831298832 T T T 
5.885429180 0.110162666 28.831638757 T T T 
23.537407148 10.181304020 28.863326672 T T T 
11.765762594 0.005941357 28.862717062 T T T 
17.664714218 0.012755906 28.862073551 T T T 
5.886066321 5.076469729 28.842195191 T T T 
7.341513612 2.561709753 28.843771774 T T T 
4.430687579 2.560466000 28.842735414 T T T 
14.708424734 10.237905109 28.954017604 T T T 
16.229735217 7.616616719 28.941903050 T T T 
8.702894263 10.133731477 28.904594063 T T T 
13.244429294 7.598296629 28.927781640 T T T 
13.132002546 2.489365400 28.891926668 T T T 
20.704377617 10.111757084 28.888670119 T T T 
16.298506101 2.492969443 28.893117919 T T T 
10.292784990 12.875189468 28.906023594 T T T 
19.129565564 12.866209075 28.894783225 T T T 
17.691274881 10.205407918 28.954402293 T T T 
11.736352268 10.201233171 28.961471081 T T T 
14.731780478 5.056025518 28.945044537 T T T 
10.157814536 7.563292509 28.905288753 T T T 
11.628884625 5.020579639 28.900793335 T T T 
19.266788842 7.548319850 28.883546013 T T T 
17.806710433 5.016176011 28.884446443 T T T 
13.245656940 12.912637698 28.904782430 T T T 
16.183881249 12.912420566 28.898485539 T T T 
1.472100000 0.848410000 31.203290000 F F F 
4.416260000 0.848410000 31.203290000 F F F 
7.360410000 0.848410000 31.203290000 F F F 
10.304570000 0.848410000 31.203290000 F F F 
13.248730000 0.848410000 31.203290000 F F F 
16.192900000 0.848410000 31.203290000 F F F 
2.944080000 3.396050000 31.203290000 F F F 
5.888240000 3.396050000 31.203290000 F F F 
8.832400000 3.396050000 31.203290000 F F F 
11.776560000 3.396050000 31.203290000 F F F 
14.720720000 3.396050000 31.203290000 F F F 
17.664880000 3.396050000 31.203290000 F F F 
4.416070000 5.943690000 31.203290000 F F F 
7.360230000 5.943690000 31.203290000 F F F 
10.304390000 5.943690000 31.203290000 F F F 
13.248550000 5.943690000 31.203290000 F F F 
16.192710000 5.943690000 31.203290000 F F F 
19.136870000 5.943690000 31.203290000 F F F 
5.888050000 8.491340000 31.203290000 F F F 
8.832210000 8.491340000 31.203290000 F F F 
11.776370000 8.491340000 31.203290000 F F F 
14.720530000 8.491340000 31.203290000 F F F 
17.664690000 8.491340000 31.203290000 F F F 
20.608850000 8.491340000 31.203290000 F F F 
7.360040000 11.038980000 31.203290000 F F F 
10.304200000 11.038980000 31.203290000 F F F 
13.248360000 11.038980000 31.203290000 F F F 
16.192520000 11.038980000 31.203290000 F F F 
19.136680000 11.038980000 31.203290000 F F F 
22.080840000 11.038980000 31.203290000 F F F 
8.832020000 13.586620000 31.203290000 F F F 
11.776180000 13.586620000 31.203290000 F F F 
14.720340000 13.586620000 31.203290000 F F F 
17.664500000 13.586620000 31.203290000 F F F 
20.608660000 13.586620000 31.203290000 F F F 
23.552820000 13.586620000 31.203290000 F F F 
2.944150000 1.697570000 33.594620000 F F F 
5.888310000 1.697570000 33.594620000 F F F 
8.832470000 1.697570000 33.594620000 F F F 
11.776630000 1.697570000 33.594620000 F F F 
14.720790000 1.697570000 33.594620000 F F F 
17.664950000 1.697570000 33.594620000 F F F 
4.416130000 4.245220000 33.594620000 F F F 
7.360290000 4.245220000 33.594620000 F F F 
10.304450000 4.245220000 33.594620000 F F F 
13.248610000 4.245220000 33.594620000 F F F 
16.192770000 4.245220000 33.594620000 F F F 
19.136930000 4.245220000 33.594620000 F F F 
5.888120000 6.792860000 33.594620000 F F F 
8.832280000 6.792860000 33.594620000 F F F 
11.776440000 6.792860000 33.594620000 F F F 
14.720600000 6.792860000 33.594620000 F F F 
17.664760000 6.792860000 33.594620000 F F F 
20.608920000 6.792860000 33.594620000 F F F 
7.360100000 9.340500000 33.594620000 F F F 
10.304260000 9.340500000 33.594620000 F F F 
13.248420000 9.340500000 33.594620000 F F F 
16.192580000 9.340500000 33.594620000 F F F 
19.136740000 9.340500000 33.594620000 F F F 
22.080900000 9.340500000 33.594620000 F F F 
8.832090000 11.888140000 33.594620000 F F F 
11.776250000 11.888140000 33.594620000 F F F 
14.720410000 11.888140000 33.594620000 F F F 
17.664570000 11.888140000 33.594620000 F F F 
20.608730000 11.888140000 33.594620000 F F F 
23.552890000 11.888140000 33.594620000 F F F 
10.304070000 14.435780000 33.594620000 F F F 
13.248240000 14.435780000 33.594620000 F F F 
16.192400000 14.435780000 33.594620000 F F F 
19.136550000 14.435780000 33.594620000 F F F 
22.080710000 14.435780000 33.594620000 F F F 
25.024880000 14.435780000 33.594620000 F F F 
14.314143237 2.349831054 9.738405027 T T T 
14.096711865 3.573419182 12.260761350 T T T 
15.375828438 3.050988329 12.502597839 T T T 
13.426379792 4.242334421 13.304101995 T T T 
15.939897088 3.153592444 13.772418596 T T T 
14.022514820 4.381621170 14.555120228 T T T 
15.287329045 3.821041322 14.827088168 T T T 
15.896942037 3.847242696 16.161900028 T T T 
15.862407251 4.863178922 17.052467316 T T T 
16.453520278 4.800971405 18.397031720 T T T 
16.300360802 3.672086775 19.229221035 T T T 
17.209320474 5.880106642 18.904017876 T T T 
16.875007932 3.619864485 20.497657035 T T T 
17.820255253 5.822583551 20.159866945 T T T 
17.651414500 4.692597969 20.974885632 T T T 
19.612293162 5.756499444 22.680231948 T T T 
13.792312210 2.215840415 8.782541053 T T T 
15.271537958 2.850596550 9.545843558 T T T 
14.459965344 1.376609646 10.222772073 T T T 
15.930662297 2.545383554 11.714592868 T T T 
12.420767811 4.633016173 13.137930292 T T T 
16.921705657 2.711133110 13.949826999 T T T 
13.474444961 4.883293964 15.353855748 T T T 
16.468797052 2.951076112 16.429012638 T T T 
15.419845947 5.824207689 16.759541131 T T T 
15.695051311 2.833837513 18.882555761 T T T 
17.349726760 6.768435033 18.286373691 T T T 
16.728201275 2.739095005 21.124808960 T T T 
18.410868759 6.672708463 20.498830349 T T T 
20.360906466 5.516628778 21.915617793 T T T 
19.238067438 6.782194855 22.567760345 T T T 
20.051334402 5.656059111 23.680259168 T T T 
13.224342629 3.386607512 10.731548596 T T T 
18.269321414 4.553995343 22.626766828 T T T 
